Version identifier: 22.1.1.0 | 2022-11-28 | 9160aff4d
CPXPARAM_ClockType                               1
CPXPARAM_Read_DataCheck                          1
CPXPARAM_Threads                                 1
CPXPARAM_TimeLimit                               7200
CPXPARAM_MIP_Tolerances_AbsMIPGap                0
CPXPARAM_MIP_Tolerances_MIPGap                   0
CPXPARAM_MIP_Tolerances_Integrality              0
Tried aggregator 5 times.
MIP Presolve eliminated 16032 rows and 5596 columns.
MIP Presolve modified 2724 coefficients.
Aggregator did 1776 substitutions.
Reduced MIP has 5187 rows, 2816 columns, and 15794 nonzeros.
Reduced MIP has 2816 binaries, 0 generals, 0 SOSs, and 0 indicators.
Presolve time = 0.04 sec. (40.53 ticks)
Found incumbent of value -4436.000000 after 0.07 sec. (56.79 ticks)
Probing time = 0.01 sec. (3.47 ticks)
Tried aggregator 1 time.
Detecting symmetries...
MIP Presolve eliminated 0 rows and 1 columns.
Reduced MIP has 5187 rows, 2815 columns, and 15793 nonzeros.
Reduced MIP has 2815 binaries, 0 generals, 0 SOSs, and 0 indicators.
Presolve time = 0.01 sec. (11.43 ticks)
Probing time = 0.00 sec. (3.43 ticks)
Clique table members: 4243.
MIP emphasis: balance optimality and feasibility.
MIP search method: dynamic search.
Parallel mode: none, using 1 thread.
Root relaxation solution time = 0.24 sec. (224.81 ticks)

        Nodes                                         Cuts/
   Node  Left     Objective  IInf  Best Integer    Best Bound    ItCnt     Gap

*     0+    0                        -4436.0000     2632.0000           159.33%
      0     0     1316.0000  1562    -4436.0000     1316.0000     3240  129.67%
*     0+    0                         1102.0000     1316.0000            19.42%
      0     0     1128.0000   834     1102.0000     Cuts: 407     5144    2.36%
*     0+    0                         1128.0000     1128.0000             0.00%
      0     0        cutoff           1128.0000     1128.0000     5144    0.00%
Elapsed time = 1.01 sec. (1004.05 ticks, tree = 0.01 MB, solutions = 3)

Clique cuts applied:  35
Implied bound cuts applied:  1
Zero-half cuts applied:  245

Root node processing (before b&c):
  Real time             =    1.02 sec. (1004.58 ticks)
Sequential b&c:
  Real time             =    0.00 sec. (0.00 ticks)
                          ------------
Total (root+branch&cut) =    1.02 sec. (1004.58 ticks)
Solution is feasible.

---------------------
@@@ MIP_optimal
>>> Benchmark mc2024_track1_184.cnf k 5 OPT 1128 TimeCost 4.02096152305603 TimeSolve 1.035473346710205 TimeRead 0.0046579837799072266 TimeTrans 2.980830192565918
